output ["\"output\": {","\"default\": ",showJSON(concat(["Product ID field: ",show(x),"\n"]++["Variant ID field: ",show(y),"\n"])),", \"raw\": ",showJSON(concat(["Product ID field: ",show(x),"\n"]++["Variant ID field: ",show(y),"\n"])),"}, \"sections\": [\"default\", \"raw\"]"];
array [1..2] of int: x;
int: y;
